Minimize
  + 55.5400000667572 Constant
Subject To
 R1: (can0_init_target-value-(1,_0)) = 1
 R7: (robot_end_pose-value-(1,_0)) = 0.4000000059604645
 R9: (grasp0-value-(1,_0)) = 0.6000000238418579
 R32: - (grasp0-value-(1,_0)) - (can0_init_target-value-(1,_0))
   + (robot_end_pose-value-(1,_0)) = 0
Bounds
 (grasp0-value-(1,_0)) free
 (can0_init_target-value-(1,_0)) free
 (robot_end_pose-value-(1,_0)) free
 Constant = 1
End
